proyfinal/src/viki/013/experimentInOfficeAgust.take6.output/055c3e04-daa4-4a8d-99c6-c089798a2c85.als.out
Reading from standard input... Use '--help' for help.
============================[ Problem Statistics ]=============================
|                                                                             |
|  Number of variables:         87638                                         |
|  Number of clauses:          161767                                         |
|  Parse time:                   0.04 s                                       |
|                                                                             |
============================[ Search Statistics ]==============================
| Conflicts |          ORIGINAL         |          LEARNT          | Progress |
|           |    Vars  Clauses Literals |    Limit  Clauses Lit/Cl |          |
===============================================================================
|       100 |   62278   104842   261930 |    38442      100      8 | 28.937 % |
|       250 |   62277   104798   261840 |    42286      249     29 | 28.938 % |
|       475 |   62044   103978   259902 |    46514      460     34 | 29.204 % |
|       812 |   62044   103873   259656 |    51166      792     46 | 29.204 % |
|      1318 |   62044   103873   259656 |    56283     1298     64 | 29.204 % |
|      2077 |   61988   103647   259124 |    61911     2050     69 | 29.268 % |
|      3216 |   61988   103647   259124 |    68102     3189     70 | 29.268 % |
|      4924 |   61940   103534   258852 |    74912     4880     73 | 29.323 % |
|      7486 |   46934    59981   151828 |    82403     6264     63 | 46.446 % |
===============================================================================
restarts              : 41
conflicts             : 9487           (7239 /sec)
decisions             : 28695          (0.00 % random) (21895 /sec)
propagations          : 15193130       (11592738 /sec)
conflict literals     : 516065         (47.10 % deleted)
Memory used           : 34.46 MB
CPU time              : 1.31057 s

UNSATISFIABLE
